nScooters 	= 15;
nEmployees 	= 16;
dummy 	= 17;
TravelTime 	= [|0, 83, 167, 237, 263, 353, 387, 397, 460, 501, 531, 583, 581, 552, 517, 423, 507, 496, 340, 74, 295, 143, 107, 438, 322, 321, 387, 438, 44, 234, 526, 502, 344, 129, 95, 220, 339, 383, 445, 460, 423, 402, 307, 290, 314, 196, 209
|83, 0, 84, 156, 187, 276, 315, 330, 399, 443, 477, 532, 534, 512, 488, 454, 436, 509, 274, 123, 219, 195, 189, 409, 243, 255, 346, 372, 123, 186, 480, 501, 287, 133, 163, 248, 335, 354, 400, 429, 415, 415, 337, 283, 269, 190, 154
|167, 84, 0, 78, 120, 204, 250, 273, 349, 396, 433, 492, 500, 487, 476, 502, 371, 540, 222, 199, 146, 266, 273, 400, 167, 204, 325, 316, 207, 172, 447, 519, 248, 183, 243, 302, 355, 347, 371, 415, 427, 447, 387, 305, 248, 221, 137
|237, 156, 78, 0, 51, 127, 176, 204, 283, 331, 371, 431, 443, 437, 437, 517, 296, 538, 158, 255, 136, 314, 342, 365, 90, 143, 284, 246, 274, 153, 392, 505, 195, 219, 302, 330, 349, 316, 320, 377, 411, 449, 408, 303, 211, 236, 124
|263, 187, 120, 51, 0, 90, 131, 155, 232, 281, 320, 380, 392, 387, 390, 496, 252, 506, 107, 268, 179, 319, 367, 320, 64, 92, 237, 197, 297, 124, 341, 467, 146, 220, 317, 321, 318, 273, 271, 330, 374, 420, 392, 276, 168, 222, 104
|353, 276, 204, 127, 90, 0, 59, 102, 179, 228, 270, 331, 351, 360, 381, 549, 172, 540, 89, 356, 212, 401, 456, 322, 41, 90, 237, 136, 386, 184, 307, 489, 142, 302, 404, 392, 358, 286, 250, 326, 398, 462, 454, 324, 190, 291, 177
|387, 315, 250, 176, 131, 59, 0, 47, 122, 170, 212, 274, 294, 306, 334, 534, 122, 513, 66, 380, 270, 417, 487, 281, 98, 80, 199, 78, 417, 189, 252, 455, 111, 318, 428, 395, 338, 253, 201, 282, 367, 441, 448, 311, 168, 296, 193
|397, 330, 273, 204, 155, 102, 47, 0, 80, 130, 171, 232, 250, 260, 287, 503, 115, 474, 57, 381, 310, 410, 491, 237, 138, 76, 157, 43, 422, 180, 206, 413, 81, 314, 427, 378, 305, 212, 155, 236, 328, 406, 423, 284, 140, 282, 192
|460, 399, 349, 283, 232, 179, 122, 80, 0, 50, 91, 153, 173, 192, 234, 501, 99, 454, 127, 435, 390, 454, 549, 203, 217, 146, 142, 45, 481, 231, 135, 383, 118, 364, 479, 407, 306, 197, 108, 194, 307, 399, 438, 298, 166, 320, 252
|501, 443, 396, 331, 281, 228, 170, 130, 50, 0, 42, 104, 127, 155, 210, 507, 120, 447, 175, 472, 439, 485, 587, 196, 266, 193, 153, 93, 520, 269, 97, 372, 158, 399, 514, 432, 317, 203, 102, 181, 304, 402, 453, 316, 197, 350, 293
|531, 477, 433, 371, 320, 270, 212, 171, 91, 42, 0, 62, 86, 122, 187, 505, 154, 436, 213, 498, 480, 506, 613, 189, 307, 230, 165, 135, 548, 298, 67, 357, 190, 424, 539, 447, 321, 208, 106, 170, 298, 399, 460, 328, 221, 371, 325
|583, 532, 492, 431, 380, 331, 274, 232, 153, 104, 62, 0, 38, 97, 175, 516, 206, 434, 273, 545, 542, 548, 660, 203, 369, 289, 204, 196, 597, 350, 68, 351, 246, 471, 584, 482, 345, 235, 142, 179, 307, 410, 485, 359, 270, 414, 379
|581, 534, 500, 443, 392, 351, 294, 250, 173, 127, 86, 38, 0, 63, 143, 488, 238, 402, 285, 539, 559, 537, 654, 180, 386, 300, 196, 217, 592, 350, 56, 318, 252, 465, 576, 466, 324, 219, 136, 155, 279, 383, 463, 343, 268, 405, 380
|552, 512, 487, 437, 387, 360, 306, 260, 192, 155, 122, 97, 63, 0, 80, 428, 274, 340, 285, 504, 562, 495, 618, 129, 392, 297, 167, 236, 559, 327, 59, 255, 243, 430, 538, 420, 272, 175, 118, 103, 220, 323, 409, 297, 244, 367, 360
|517, 488, 476, 437, 390, 381, 334, 287, 234, 210, 187, 175, 143, 80, 0, 0, 0, 0, 0, 0, 0, 0, 0, 0, 0, 0, 0, 0, 0, 0, 0, 0, 0, 0, 0, 0, 0, 0, 0, 0, 0, 0, 0, 0, 0, 0, 0
|423, 454, 502, 517, 496, 549, 534, 503, 501, 507, 505, 516, 488, 428, 0, 0, 0, 0, 0, 0, 0, 0, 0, 0, 0, 0, 0, 0, 0, 0, 0, 0, 0, 0, 0, 0, 0, 0, 0, 0, 0, 0, 0, 0, 0, 0, 0
|507, 436, 371, 296, 252, 172, 122, 115, 99, 120, 154, 206, 238, 274, 0, 0, 0, 0, 0, 0, 0, 0, 0, 0, 0, 0, 0, 0, 0, 0, 0, 0, 0, 0, 0, 0, 0, 0, 0, 0, 0, 0, 0, 0, 0, 0, 0
|496, 509, 540, 538, 506, 540, 513, 474, 454, 447, 436, 434, 402, 340, 0, 0, 0, 0, 0, 0, 0, 0, 0, 0, 0, 0, 0, 0, 0, 0, 0, 0, 0, 0, 0, 0, 0, 0, 0, 0, 0, 0, 0, 0, 0, 0, 0
|340, 274, 222, 158, 107, 89, 66, 57, 127, 175, 213, 273, 285, 285, 0, 0, 0, 0, 0, 0, 0, 0, 0, 0, 0, 0, 0, 0, 0, 0, 0, 0, 0, 0, 0, 0, 0, 0, 0, 0, 0, 0, 0, 0, 0, 0, 0
|74, 123, 199, 255, 268, 356, 380, 381, 435, 472, 498, 545, 539, 504, 0, 0, 0, 0, 0, 0, 0, 0, 0, 0, 0, 0, 0, 0, 0, 0, 0, 0, 0, 0, 0, 0, 0, 0, 0, 0, 0, 0, 0, 0, 0, 0, 0
|295, 219, 146, 136, 179, 212, 270, 310, 390, 439, 480, 542, 559, 562, 0, 0, 0, 0, 0, 0, 0, 0, 0, 0, 0, 0, 0, 0, 0, 0, 0, 0, 0, 0, 0, 0, 0, 0, 0, 0, 0, 0, 0, 0, 0, 0, 0
|143, 195, 266, 314, 319, 401, 417, 410, 454, 485, 506, 548, 537, 495, 0, 0, 0, 0, 0, 0, 0, 0, 0, 0, 0, 0, 0, 0, 0, 0, 0, 0, 0, 0, 0, 0, 0, 0, 0, 0, 0, 0, 0, 0, 0, 0, 0
|107, 189, 273, 342, 367, 456, 487, 491, 549, 587, 613, 660, 654, 618, 0, 0, 0, 0, 0, 0, 0, 0, 0, 0, 0, 0, 0, 0, 0, 0, 0, 0, 0, 0, 0, 0, 0, 0, 0, 0, 0, 0, 0, 0, 0, 0, 0
|438, 409, 400, 365, 320, 322, 281, 237, 203, 196, 189, 203, 180, 129, 0, 0, 0, 0, 0, 0, 0, 0, 0, 0, 0, 0, 0, 0, 0, 0, 0, 0, 0, 0, 0, 0, 0, 0, 0, 0, 0, 0, 0, 0, 0, 0, 0
|322, 243, 167, 90, 64, 41, 98, 138, 217, 266, 307, 369, 386, 392, 0, 0, 0, 0, 0, 0, 0, 0, 0, 0, 0, 0, 0, 0, 0, 0, 0, 0, 0, 0, 0, 0, 0, 0, 0, 0, 0, 0, 0, 0, 0, 0, 0
|321, 255, 204, 143, 92, 90, 80, 76, 146, 193, 230, 289, 300, 297, 0, 0, 0, 0, 0, 0, 0, 0, 0, 0, 0, 0, 0, 0, 0, 0, 0, 0, 0, 0, 0, 0, 0, 0, 0, 0, 0, 0, 0, 0, 0, 0, 0
|387, 346, 325, 284, 237, 237, 199, 157, 142, 153, 165, 204, 196, 167, 0, 0, 0, 0, 0, 0, 0, 0, 0, 0, 0, 0, 0, 0, 0, 0, 0, 0, 0, 0, 0, 0, 0, 0, 0, 0, 0, 0, 0, 0, 0, 0, 0
|438, 372, 316, 246, 197, 136, 78, 43, 45, 93, 135, 196, 217, 236, 0, 0, 0, 0, 0, 0, 0, 0, 0, 0, 0, 0, 0, 0, 0, 0, 0, 0, 0, 0, 0, 0, 0, 0, 0, 0, 0, 0, 0, 0, 0, 0, 0
|44, 123, 207, 274, 297, 386, 417, 422, 481, 520, 548, 597, 592, 559, 0, 0, 0, 0, 0, 0, 0, 0, 0, 0, 0, 0, 0, 0, 0, 0, 0, 0, 0, 0, 0, 0, 0, 0, 0, 0, 0, 0, 0, 0, 0, 0, 0
|234, 186, 172, 153, 124, 184, 189, 180, 231, 269, 298, 350, 350, 327, 0, 0, 0, 0, 0, 0, 0, 0, 0, 0, 0, 0, 0, 0, 0, 0, 0, 0, 0, 0, 0, 0, 0, 0, 0, 0, 0, 0, 0, 0, 0, 0, 0
|526, 480, 447, 392, 341, 307, 252, 206, 135, 97, 67, 68, 56, 59, 0, 0, 0, 0, 0, 0, 0, 0, 0, 0, 0, 0, 0, 0, 0, 0, 0, 0, 0, 0, 0, 0, 0, 0, 0, 0, 0, 0, 0, 0, 0, 0, 0
|502, 501, 519, 505, 467, 489, 455, 413, 383, 372, 357, 351, 318, 255, 0, 0, 0, 0, 0, 0, 0, 0, 0, 0, 0, 0, 0, 0, 0, 0, 0, 0, 0, 0, 0, 0, 0, 0, 0, 0, 0, 0, 0, 0, 0, 0, 0
|344, 287, 248, 195, 146, 142, 111, 81, 118, 158, 190, 246, 252, 243, 0, 0, 0, 0, 0, 0, 0, 0, 0, 0, 0, 0, 0, 0, 0, 0, 0, 0, 0, 0, 0, 0, 0, 0, 0, 0, 0, 0, 0, 0, 0, 0, 0
|129, 133, 183, 219, 220, 302, 318, 314, 364, 399, 424, 471, 465, 430, 0, 0, 0, 0, 0, 0, 0, 0, 0, 0, 0, 0, 0, 0, 0, 0, 0, 0, 0, 0, 0, 0, 0, 0, 0, 0, 0, 0, 0, 0, 0, 0, 0
|95, 163, 243, 302, 317, 404, 428, 427, 479, 514, 539, 584, 576, 538, 0, 0, 0, 0, 0, 0, 0, 0, 0, 0, 0, 0, 0, 0, 0, 0, 0, 0, 0, 0, 0, 0, 0, 0, 0, 0, 0, 0, 0, 0, 0, 0, 0
|220, 248, 302, 330, 321, 392, 395, 378, 407, 432, 447, 482, 466, 420, 0, 0, 0, 0, 0, 0, 0, 0, 0, 0, 0, 0, 0, 0, 0, 0, 0, 0, 0, 0, 0, 0, 0, 0, 0, 0, 0, 0, 0, 0, 0, 0, 0
|339, 335, 355, 349, 318, 358, 338, 305, 306, 317, 321, 345, 324, 272, 0, 0, 0, 0, 0, 0, 0, 0, 0, 0, 0, 0, 0, 0, 0, 0, 0, 0, 0, 0, 0, 0, 0, 0, 0, 0, 0, 0, 0, 0, 0, 0, 0
|383, 354, 347, 316, 273, 286, 253, 212, 197, 203, 208, 235, 219, 175, 0, 0, 0, 0, 0, 0, 0, 0, 0, 0, 0, 0, 0, 0, 0, 0, 0, 0, 0, 0, 0, 0, 0, 0, 0, 0, 0, 0, 0, 0, 0, 0, 0
|445, 400, 371, 320, 271, 250, 201, 155, 108, 102, 106, 142, 136, 118, 0, 0, 0, 0, 0, 0, 0, 0, 0, 0, 0, 0, 0, 0, 0, 0, 0, 0, 0, 0, 0, 0, 0, 0, 0, 0, 0, 0, 0, 0, 0, 0, 0
|460, 429, 415, 377, 330, 326, 282, 236, 194, 181, 170, 179, 155, 103, 0, 0, 0, 0, 0, 0, 0, 0, 0, 0, 0, 0, 0, 0, 0, 0, 0, 0, 0, 0, 0, 0, 0, 0, 0, 0, 0, 0, 0, 0, 0, 0, 0
|423, 415, 427, 411, 374, 398, 367, 328, 307, 304, 298, 307, 279, 220, 0, 0, 0, 0, 0, 0, 0, 0, 0, 0, 0, 0, 0, 0, 0, 0, 0, 0, 0, 0, 0, 0, 0, 0, 0, 0, 0, 0, 0, 0, 0, 0, 0
|402, 415, 447, 449, 420, 462, 441, 406, 399, 402, 399, 410, 383, 323, 0, 0, 0, 0, 0, 0, 0, 0, 0, 0, 0, 0, 0, 0, 0, 0, 0, 0, 0, 0, 0, 0, 0, 0, 0, 0, 0, 0, 0, 0, 0, 0, 0
|307, 337, 387, 408, 392, 454, 448, 423, 438, 453, 460, 485, 463, 409, 0, 0, 0, 0, 0, 0, 0, 0, 0, 0, 0, 0, 0, 0, 0, 0, 0, 0, 0, 0, 0, 0, 0, 0, 0, 0, 0, 0, 0, 0, 0, 0, 0
|290, 283, 305, 303, 276, 324, 311, 284, 298, 316, 328, 359, 343, 297, 0, 0, 0, 0, 0, 0, 0, 0, 0, 0, 0, 0, 0, 0, 0, 0, 0, 0, 0, 0, 0, 0, 0, 0, 0, 0, 0, 0, 0, 0, 0, 0, 0
|314, 269, 248, 211, 168, 190, 168, 140, 166, 197, 221, 270, 268, 244, 0, 0, 0, 0, 0, 0, 0, 0, 0, 0, 0, 0, 0, 0, 0, 0, 0, 0, 0, 0, 0, 0, 0, 0, 0, 0, 0, 0, 0, 0, 0, 0, 0
|196, 190, 221, 236, 222, 291, 296, 282, 320, 350, 371, 414, 405, 367, 0, 0, 0, 0, 0, 0, 0, 0, 0, 0, 0, 0, 0, 0, 0, 0, 0, 0, 0, 0, 0, 0, 0, 0, 0, 0, 0, 0, 0, 0, 0, 0, 0
|209, 154, 137, 124, 104, 177, 193, 192, 252, 293, 325, 379, 380, 360, 0, 0, 0, 0, 0, 0, 0, 0, 0, 0, 0, 0, 0, 0, 0, 0, 0, 0, 0, 0, 0, 0, 0, 0, 0, 0, 0, 0, 0, 0, 0, 0, 0
|];
Priority = [41, 25, 36, 21, 12, 15, 47, 30, 9, 11, 37, 6, 31, 42, 49];
Payment = [59, 66, 66, 70, 54, 84, 82, 95, 92, 72, 68, 78, 86, 65, 54];
MinNumScooters = [2, 3, 4, 4, 4, 4, 4, 2, 3, 3, 4, 2, 3, 2, 3, 3];
MaxNumScooters = [14, 10, 8, 5, 14, 8, 7, 8, 11, 9, 6, 12, 9, 13, 13, 8];
MaxTime = [1517, 1268, 1535, 1382, 1175, 1072, 1460, 1242, 1251, 913, 1652, 1024, 1094, 1456, 1812, 1235];
alpha = 7;
beta = 1;
gamma = 13;
